20
587 233 220
84 81 23
115 72 64
77 49 25
40 37 22
97 96 46
95 43 25
90 69 28
56 51 49
118 93 80
56 47 41
78 71 27
88 62 41
87 53 21
105 47 28
103 68 65
67 64 31
83 37 27
44 31 29
91 69 49
90 61 42
thpack7_23